Value of objective function:               -1
x1                       0
x2                       1
x3                       1
x4                       1
x5                       1
x6                       0
These are the duals from the node that gave the optimal solution.
r_1                     -2
r_2                      0
r_3                      0
r_4                     -4
r_5                     -5
r_6                      0
